//Number of items      		
177
//Bin Capacity      
1000
//Known Best Solution  		
72
//Weight of Item
     700         1
     699         1
     697         1
     693         1
     692         1
     688         1
     684         1
     681         1
     672         2
     670         1
     669         1
     666         2
     665         1
     661         1
     656         1
     654         1
     652         1
     650         1
     647         1
     638         1
     631         1
     628         1
     626         1
     625         1
     624         1
     621         1
     617         1
     614         2
     607         1
     603         2
     598         1
     595         1
     592         1
     588         1
     584         1
     581         1
     580         1
     553         1
     552         1
     543         1
     542         1
     540         1
     539         1
     537         2
     529         1
     527         1
     525         1
     521         1
     520         1
     519         1
     513         1
     508         2
     500         1
     499         1
     494         1
     491         1
     481         1
     472         2
     468         1
     463         2
     462         1
     456         1
     454         1
     453         1
     452         1
     451         1
     450         1
     449         1
     448         1
     442         1
     439         1
     429         1
     427         1
     421         1
     419         2
     413         2
     412         1
     406         1
     398         1
     388         2
     375         1
     366         1
     364         1
     361         1
     353         1
     352         1
     351         1
     348         1
     347         1
     344         1
     342         1
     338         1
     336         1
     334         1
     331         2
     329         1
     321         1
     319         1
     318         1
     317         1
     314         1
     313         2
     304         2
     303         1
     302         1
     293         1
     292         1
     282         1
     281         1
     280         1
     276         1
     266         1
     260         2
     259         1
     258         1
     256         1
     253         1
     252         1
     241         1
     231         1
     229         1
     226         2
     225         1
     216         1
     214         1
     211         1
     201         1
     200         1
     198         1
     197         1
     195         1
     193         1
     190         1
     186         1
     185         2
     179         1
     176         1
     170         1
     169         1
     168         2
     158         1
     153         1
     148         1
     142         1
     140         1
     139         1
     138         1
     135         3
     134         1
     133         1
     131         1
     130         1
     124         1
     116         1
     114         1
     111         1
     106         1
     104         1
     102         1
     101         1
      99         1
      89         3
      88         1
      86         1
      85         1
      78         1
      69         1
      63         1
      47         1
      45         2
      32         1
      23         1
      22         1
      17         1
      10         1
       3         1
       1         1